RT is False
Default write of storage_offers_DA.csv just to have a file (but constraint should be inactive)
Reading model...
...model read.
creating competitive generators file...
...competitive generators recorded.
Loading data...
.. day-ahead data with real-time VRE data read.
Compiling instance...
0
0.0
0
0.0
...instance created.
Creating Offer Mitigation (model will solve as dispatch if TRUE)...
...storage offer mitigation file created
Converting model to MPEC...
...converted
NOTE: initial MIP solve with only storage competitive to get feasible solution
Solving...

Welcome to IBM(R) ILOG(R) CPLEX(R) Interactive Optimizer 12.9.0.0
  with Simplex, Mixed Integer & Barrier Optimizers
5725-A06 5725-A29 5724-Y48 5724-Y49 5724-Y54 5724-Y55 5655-Y21
Copyright IBM Corp. 1988, 2019.  All Rights Reserved.

Type 'help' for a list of available commands.
Type 'help' followed by a command name for more
information on commands.

CPLEX> Logfile 'cplex.log' closed.
Logfile 'C:\Users\llavin\Desktop\test826\logs\tmpktwxkdt1.cplex.log' open.
CPLEX> New value for parallel optimization mode: -1
CPLEX> New value for mixed integer optimality gap tolerance: 0.05
CPLEX> New value for feasibility tolerance: 1e-09
CPLEX> New value for emphasis for MIP optimization: 1
CPLEX> New value for deterministic time limit in ticks: 100000
CPLEX> Problem 'C:\Users\llavin\Desktop\test826\logs\tmp26x_u8p_.pyomo.lp' read.
Read time = 0.25 sec. (14.71 ticks)
CPLEX> Problem name         : C:\Users\llavin\Desktop\test826\logs\tmp26x_u8p_.pyomo.lp
Objective sense      : Maximize
Variables            :   53805  [Nneg: 1,  Box: 22000,  Free: 4464,
                                 Binary: 27340]
Objective nonzeros   :    9029
Linear constraints   :  123205  [Less: 41346,  Greater: 59096,  Equal: 22763]
  Nonzeros           :  291753
  RHS nonzeros       :   67491

Variables            : Min LB: -5000.000        Max UB: 8000.000       
Objective nonzeros   : Min   : 0.07500000       Max   : 2500.000       
Linear constraints   :
  Nonzeros           : Min   : 0.07500000       Max   : 497500.0       
  RHS nonzeros       : Min   : 0.07500000       Max   : 500000.0       
CPLEX> CPXPARAM_Parallel                                -1
CPXPARAM_Emphasis_MIP                            1
CPXPARAM_Simplex_Tolerances_Feasibility          1.0000000000000001e-09
CPXPARAM_DetTimeLimit                            100000
CPXPARAM_MIP_Tolerances_MIPGap                   0.050000000000000003
Tried aggregator 3 times.
MIP Presolve eliminated 88710 rows and 19034 columns.
MIP Presolve added 3371 rows and 0 columns.
MIP Presolve modified 24852 coefficients.
Aggregator did 12993 substitutions.
Reduced MIP has 24873 rows, 21222 columns, and 70962 nonzeros.
Reduced MIP has 8396 binaries, 0 generals, 0 SOSs, and 0 indicators.
Presolve time = 0.28 sec. (168.30 ticks)
Probing fixed 379 vars, tightened 4188 bounds.
Probing time = 0.08 sec. (21.36 ticks)
Tried aggregator 2 times.
MIP Presolve eliminated 853 rows and 759 columns.
MIP Presolve modified 3028 coefficients.
Aggregator did 35 substitutions.
Reduced MIP has 23985 rows, 20428 columns, and 68387 nonzeros.
Reduced MIP has 8017 binaries, 0 generals, 0 SOSs, and 0 indicators.
Presolve time = 0.11 sec. (88.93 ticks)
Probing fixed 0 vars, tightened 168 bounds.
Probing time = 0.14 sec. (23.32 ticks)
Clique table members: 44364.
MIP emphasis: integer feasibility.
MIP search method: dynamic search.
Parallel mode: opportunistic, using up to 32 threads.
Root relaxation solution time = 0.45 sec. (633.27 ticks)

        Nodes                                         Cuts/
   Node  Left     Objective  IInf  Best Integer    Best Bound    ItCnt     Gap

      0     0     3965.4494   102                   3965.4494     5808         
*     0     0      integral     0     3965.4494     3965.4494     5808    0.00%
Elapsed time = 2.17 sec. (1660.95 ticks, tree = 0.01 MB, solutions = 1)

Root node processing (before b&c):
  Real time             =    2.19 sec. (1662.90 ticks)
Parallel b&c, 32 threads:
  Real time             =    0.00 sec. (0.00 ticks)
  Sync time (average)   =    0.00 sec.
  Wait time (average)   =    0.00 sec.
                          ------------
Total (root+branch&cut) =    2.19 sec. (1662.90 ticks)

Solution pool: 1 solution saved.

MIP - Integer optimal solution:  Objective =  3.9654494451e+03
Solution time =    2.19 sec.  Iterations = 5808  Nodes = 0
Deterministic time = 1663.05 ticks  (760.43 ticks/sec)

CPLEX> Incumbent solution written to file 'C:\Users\llavin\Desktop\test826\logs\tmp43qupnjh.cplex.sol'.
CPLEX> NOTE: no warmstart specified for MIP iteration, default behavior is true
NOTE: resolving with all competitive generators using storage-only solution to warmstart
Solving...

Welcome to IBM(R) ILOG(R) CPLEX(R) Interactive Optimizer 12.9.0.0
  with Simplex, Mixed Integer & Barrier Optimizers
5725-A06 5725-A29 5724-Y48 5724-Y49 5724-Y54 5724-Y55 5655-Y21
Copyright IBM Corp. 1988, 2019.  All Rights Reserved.

Type 'help' for a list of available commands.
Type 'help' followed by a command name for more
information on commands.

CPLEX> Logfile 'cplex.log' closed.
Logfile 'C:\Users\llavin\Desktop\test826\logs\tmp9f6706bd.cplex.log' open.
CPLEX> New value for parallel optimization mode: -1
CPLEX> New value for mixed integer optimality gap tolerance: 0.05
CPLEX> New value for feasibility tolerance: 1e-09
CPLEX> New value for emphasis for MIP optimization: 1
CPLEX> New value for deterministic time limit in ticks: 100000
CPLEX> Problem 'C:\Users\llavin\Desktop\test826\logs\tmpt_irezyp.pyomo.lp' read.
Read time = 0.23 sec. (14.73 ticks)
CPLEX> MIP start file 'C:\Users\llavin\Desktop\test826\logs\tmpbrdh6m0p.cplex.mst' read.
CPLEX> Problem name         : C:\Users\llavin\Desktop\test826\logs\tmpt_irezyp.pyomo.lp
Objective sense      : Maximize
Variables            :   54525  [Nneg: 1,  Box: 22720,  Free: 4464,
                                 Binary: 27340]
Objective nonzeros   :    9725
Linear constraints   :  123205  [Less: 41346,  Greater: 59096,  Equal: 22763]
  Nonzeros           :  291753
  RHS nonzeros       :   67491

Variables            : Min LB: -5000.000        Max UB: 8000.000       
Objective nonzeros   : Min   : 0.07500000       Max   : 2500.000       
Linear constraints   :
  Nonzeros           : Min   : 0.07500000       Max   : 497500.0       
  RHS nonzeros       : Min   : 0.07500000       Max   : 500000.0       
CPLEX> CPXPARAM_Parallel                                -1
CPXPARAM_Emphasis_MIP                            1
CPXPARAM_Simplex_Tolerances_Feasibility          1.0000000000000001e-09
CPXPARAM_DetTimeLimit                            100000
CPXPARAM_MIP_Tolerances_MIPGap                   0.050000000000000003
Warning:  No solution found from 1 MIP starts.
Retaining values of one MIP start for possible repair.
Tried aggregator 3 times.
MIP Presolve eliminated 88710 rows and 19754 columns.
MIP Presolve added 3371 rows and 0 columns.
MIP Presolve modified 24852 coefficients.
Aggregator did 12993 substitutions.
Reduced MIP has 24873 rows, 21222 columns, and 70962 nonzeros.
Reduced MIP has 8396 binaries, 0 generals, 0 SOSs, and 0 indicators.
Presolve time = 0.30 sec. (168.66 ticks)
Probing fixed 379 vars, tightened 4188 bounds.
Probing time = 0.09 sec. (21.36 ticks)
Tried aggregator 2 times.
MIP Presolve eliminated 853 rows and 759 columns.
MIP Presolve modified 3028 coefficients.
Aggregator did 35 substitutions.
Reduced MIP has 23985 rows, 20428 columns, and 68387 nonzeros.
Reduced MIP has 8017 binaries, 0 generals, 0 SOSs, and 0 indicators.
Presolve time = 0.11 sec. (88.93 ticks)
Probing fixed 0 vars, tightened 168 bounds.
Probing time = 0.14 sec. (23.32 ticks)
Clique table members: 44364.
MIP emphasis: integer feasibility.
MIP search method: dynamic search.
Parallel mode: opportunistic, using up to 32 threads.
Root relaxation solution time = 0.52 sec. (684.56 ticks)

        Nodes                                         Cuts/
   Node  Left     Objective  IInf  Best Integer    Best Bound    ItCnt     Gap

      0     0    82475.1342   251                  82475.1342     6318         
      0     0    82093.7808   137                   Cuts: 209     6480         
      0     0    82093.2087   130                    Cuts: 88     6551         
      0     0    82093.2087   124                    Cuts: 37     6594         
Repair heuristic found nothing.
      0    20    78526.9800    92                     Cuts: 6     6773         
Elapsed time = 4.66 sec. (2083.43 ticks, tree = 0.02 MB, solutions = 0)
    663   355    infeasible                        82053.9552    17731         
   1144   544    67597.0768    27                  82053.9552    37501         
   1802  1129    62416.0470     9                  82053.9552    45946         
   2403  1384    59033.9429    23                  82053.9552    52666         
   3045  1704    62604.3339    43                  82053.9552    81299         
   3681  2052    62953.9581    46                  82034.2103   101498         
   4299  2183    63239.5756    49                  81792.9511   110918         
   4911  2761   -30949.4036    81                  81792.9511   148813         
   5591  2769    62814.0258    34                  78933.4508   149466         
   8274  4522    infeasible                        78918.6646   210782         
Elapsed time = 20.27 sec. (5189.49 ticks, tree = 209.30 MB, solutions = 0)
   8334  5009    61924.8582    30                  63279.2620   236232         
  10642   628    59925.2515    37                  63272.9845   260328         
* 12700  1948      integral     0    62645.5039    63272.9845   328591    1.00%
  12984  2033 -2725195.7396    21    62645.5039    63272.9845   332015    1.00%

Cover cuts applied:  5
Implied bound cuts applied:  4
Flow cuts applied:  33
Lift and project cuts applied:  1
Gomory fractional cuts applied:  3

Root node processing (before b&c):
  Real time             =    3.16 sec. (2042.73 ticks)
Parallel b&c, 32 threads:
  Real time             =   30.19 sec. (7053.62 ticks)
  Sync time (average)   =    0.96 sec.
  Wait time (average)   =    0.23 sec.
                          ------------
Total (root+branch&cut) =   33.34 sec. (9096.34 ticks)

Solution pool: 1 solution saved.

MIP - Integer optimal, tolerance (0.05/1e-06):  Objective =  6.2645503875e+04
Current MIP best bound =  6.3272984463e+04 (gap = 627.481, 1.00%)
Solution time =   33.36 sec.  Iterations = 362876  Nodes = 12986 (501)
Deterministic time = 9096.50 ticks  (272.68 ticks/sec)

CPLEX> Incumbent solution written to file 'C:\Users\llavin\Desktop\test826\logs\tmp7m66k6_z.cplex.sol'.
CPLEX> Exporting results... 
